900.0 1500.0
900.0 2400.0
1000.0 1500.0
1000.0 1629.0
1000.0 1800.0
1000.0 2100.0
1000.0 2400.0
1100.0 1800.0
1100.0 2100.0
1100.0 2400.0
1200.0 1500.0
1200.0 1700.0
1200.0 1800.0
1200.0 2100.0
1200.0 2400.0
1300.0 1800.0
1300.0 2100.0
1300.0 2200.0
1300.0 2400.0
1400.0 1800.0
1400.0 2000.0
1400.0 2100.0
1400.0 2400.0
1400.0 2500.0
1500.0 1800.0
1500.0 1900.0
1500.0 2100.0
1500.0 2400.0
1600.0 1800.0
1600.0 2100.0
1600.0 2400.0
1700.0 1800.0
1700.0 2100.0
1700.0 2400.0
1800.0 1500.0
1800.0 1800.0
1800.0 2100.0
1800.0 2400.0
2000.0 1500.0
2000.0 1600.0
2000.0 1700.0
2000.0 1800.0
2000.0 1900.0
950.0 2220.0
1170.0 2280.0
1220.0 2210.0
1350.0 1700.0
1350.0 2140.0
1550.0 1850.0
1790.0 2580.0
